AutoCreatByScript: H O Sn 
1.000000000
    9.63436178     0.00000000     0.00000000
    0.00000000    13.43381233     0.00000000
    0.00000000     0.00000000    24.33394223
    H    O   Sn
   30   85   36
Selective Dynamics
Direct
    0.917986586383    0.066159197620    0.419517789170    T   T   T
    0.111627687435    0.411834717707    0.420331670038    T   T   T
    0.427752660202    0.104385492699    0.420829991420    T   T   T
    0.920974431379    0.342367989990    0.420986046918    T   T   T
    0.925762688890    0.647715072988    0.422970069074    T   T   T
    0.632960948803    0.353656668891    0.426819809744    T   T   T
    0.763656169479    0.209028425348    0.430746744787    T   T   T
    0.803066213191    0.981676800966    0.431271539994    T   T   T
    0.257918915513    0.766791404501    0.438472097504    T   T   T
    0.292983252424    0.021857520784    0.439676800261    T   T   T
    0.600530884103    0.175383405448    0.441242554928    T   T   T
    0.231460482373    0.485506427020    0.442303851069    T   T   T
    0.245892660052    0.626322755168    0.443904260700    T   T   T
    0.274829664517    0.245096435055    0.447103812277    T   T   T
    0.253586779396    0.900713014278    0.448138470776    T   T   T
    0.592924127965    0.884883196137    0.449086975228    T   T   T
    0.565988398000    0.003227183685    0.449113465809    T   T   T
    0.530364694150    0.436264616871    0.453073929219    T   T   T
    0.960633094463    0.783946822094    0.454572723135    T   T   T
    0.927638506452    0.502267551919    0.460744880227    T   T   T
    0.563531984899    0.730292376763    0.463552900761    T   T   T
    0.976034266797    0.891363021497    0.475631756377    T   T   T
    0.407495026959    0.158685309535    0.478654138308    T   T   T
    0.439739012861    0.793212190821    0.487655367360    T   T   T
    0.137157930692    0.585135269003    0.488056980330    T   T   T
    0.163448370686    0.808626657226    0.488523745534    T   T   T
    0.383624610086    0.377639924621    0.501813856497    T   T   T
    0.374186610904    0.494959218854    0.504000955034    T   T   T
    0.876915359225    0.578465556293    0.507903103293    T   T   T
    0.227664741367    0.238163092245    0.510782802762    T   T   T
    0.250000000000    0.205336580166    0.000000000000    F   F   F
    0.583333333333    0.205336580166    0.000000000000    F   F   F
    0.916666666667    0.205336580166    0.000000000000    F   F   F
    0.250000000000    0.705336580166    0.000000000000    F   F   F
    0.583333333333    0.705336580166    0.000000000000    F   F   F
    0.916666666667    0.705336580166    0.000000000000    F   F   F
    0.084392443200    0.052320629317    0.053773368022    F   F   F
    0.417725776533    0.052320629317    0.053773368022    F   F   F
    0.751059109866    0.052320629317    0.053773368022    F   F   F
    0.084392443200    0.358352531014    0.053773368022    F   F   F
    0.417725776533    0.358352531014    0.053773368022    F   F   F
    0.751059109866    0.358352531014    0.053773368022    F   F   F
    0.084392443200    0.552320629317    0.053773368022    F   F   F
    0.417725776533    0.552320629317    0.053773368022    F   F   F
    0.751059109866    0.552320629317    0.053773368022    F   F   F
    0.084392443200    0.858352531014    0.053773368022    F   F   F
    0.417725776533    0.858352531014    0.053773368022    F   F   F
    0.751059109866    0.858352531014    0.053773368022    F   F   F
    0.250000000000    0.205336580166    0.107546736044    F   F   F
    0.583333333333    0.205336580166    0.107546736044    F   F   F
    0.916666666667    0.205336580166    0.107546736044    F   F   F
    0.250000000000    0.705336580166    0.107546736044    F   F   F
    0.583333333333    0.705336580166    0.107546736044    F   F   F
    0.916666666667    0.705336580166    0.107546736044    F   F   F
    0.251257967189    0.452460297866    0.139517283097    T   T   T
    0.917512712021    0.452897194154    0.139505326962    T   T   T
    0.917952049984    0.953249245558    0.139530188585    T   T   T
    0.584938098331    0.451312274103    0.139667927663    T   T   T
    0.583719294325    0.954872320136    0.139711002129    T   T   T
    0.251393716784    0.953876820213    0.140014238773    T   T   T
    0.083633467944    0.104789807499    0.192159559120    T   T   T
    0.417197835876    0.605902723745    0.194086634859    T   T   T
    0.084538381162    0.301543272365    0.194810565251    T   T   T
    0.751578496398    0.606301465852    0.195504126731    T   T   T
    0.416672717698    0.801237817205    0.196025044199    T   T   T
    0.083568900878    0.606577317247    0.196855055731    T   T   T
    0.751102630220    0.801383789856    0.196854517498    T   T   T
    0.750135175940    0.106051424444    0.197417451103    T   T   T
    0.418657598987    0.106035762964    0.197624752924    T   T   T
    0.084388057778    0.800950224168    0.198572913997    T   T   T
    0.750250930331    0.300487456568    0.199142008579    T   T   T
    0.417746864394    0.300246610333    0.200241317337    T   T   T
    0.917247380152    0.952128032437    0.248897213746    T   T   T
    0.917433436849    0.455475138595    0.249051207086    T   T   T
    0.253961963130    0.457442014832    0.249035047794    T   T   T
    0.584494675165    0.456663632273    0.249770930255    T   T   T
    0.584143807367    0.951603612866    0.249908884318    T   T   T
    0.253612555762    0.953039251808    0.251371128787    T   T   T
    0.240620519420    0.192582124630    0.275974546946    T   T   T
    0.927252577092    0.196703381941    0.277606303162    T   T   T
    0.582719323405    0.701773273753    0.277894597155    T   T   T
    0.255066609203    0.701382313248    0.280427407207    T   T   T
    0.585389095520    0.197487750354    0.283660210071    T   T   T
    0.914139893286    0.703529304330    0.283899205084    T   T   T
    0.089445186100    0.350984926821    0.325704074112    T   T   T
    0.751444521763    0.350065321864    0.333322569175    T   T   T
    0.084943215900    0.047038825751    0.335751029394    T   T   T
    0.422348679910    0.351537636270    0.335789701506    T   T   T
    0.748959837655    0.049108528586    0.336979859980    T   T   T
    0.085059692833    0.546730282895    0.339944866571    T   T   T
    0.085516825374    0.854393434074    0.342908913828    T   T   T
    0.755859742445    0.543207341145    0.343473539634    T   T   T
    0.755363556062    0.856228501652    0.343839507959    T   T   T
    0.421108764736    0.856684668145    0.344940912761    T   T   T
    0.421317621191    0.543743124107    0.346609579518    T   T   T
    0.427593210063    0.052182142691    0.346781265384    T   T   T
    0.258819551419    0.201183756448    0.387175951377    T   T   T
    0.917305609232    0.196010820651    0.390438100005    T   T   T
    0.254233964346    0.698765280931    0.390545128954    T   T   T
    0.924169670141    0.703159526054    0.395289470313    T   T   T
    0.946811905975    0.413111562960    0.418074208616    T   T   T
    0.217662505890    0.422525165869    0.418923051192    T   T   T
    0.664455930249    0.223350937742    0.421814415526    T   T   T
    0.604374025821    0.424269971228    0.422778985907    T   T   T
    0.235701178676    0.968666784838    0.424441466242    T   T   T
    0.904634156124    0.992265332963    0.424712941974    T   T   T
    0.620822877897    0.950819131559    0.430101939317    T   T   T
    0.466499857395    0.106694007300    0.458685545907    T   T   T
    0.261620093944    0.811898326491    0.473677366726    T   T   T
    0.236082298451    0.580643877925    0.477124008476    T   T   T
    0.944582737143    0.569663220596    0.478644800892    T   T   T
    0.542486383911    0.792469268462    0.482539840792    T   T   T
    0.307686686486    0.251918146446    0.487581205267    T   T   T
    0.989013046228    0.822158871587    0.487549661166    T   T   T
    0.440359844416    0.438924340800    0.504820550769    T   T   T
    0.250000000000    0.455336580166    0.053541078674    F   F   F
    0.583333333333    0.455336580166    0.053541078674    F   F   F
    0.916666666667    0.455336580166    0.053541078674    F   F   F
    0.250000000000    0.955336580166    0.053541078674    F   F   F
    0.583333333333    0.955336580166    0.053541078674    F   F   F
    0.916666666667    0.955336580166    0.053541078674    F   F   F
    0.084392443200    0.205336580166    0.053773368022    F   F   F
    0.417725776533    0.205336580166    0.053773368022    F   F   F
    0.751059109866    0.205336580166    0.053773368022    F   F   F
    0.084392443200    0.705336580166    0.053773368022    F   F   F
    0.417725776533    0.705336580166    0.053773368022    F   F   F
    0.751059109866    0.705336580166    0.053773368022    F   F   F
    0.249273050405    0.202992050399    0.190548102193    T   T   T
    0.918581052413    0.203578853950    0.191328634192    T   T   T
    0.584392788329    0.203576024472    0.191358845494    T   T   T
    0.583925685825    0.703534103281    0.191556959973    T   T   T
    0.251150070727    0.703324349782    0.192229479495    T   T   T
    0.751044688965    0.953276989558    0.192646762780    T   T   T
    0.418423532401    0.453820713111    0.193071986726    T   T   T
    0.916996353351    0.703923836210    0.193224752015    T   T   T
    0.084483888126    0.453728653443    0.193496564679    T   T   T
    0.751503321962    0.453920728619    0.193572783051    T   T   T
    0.417479977652    0.952889842144    0.193640578131    T   T   T
    0.085076084240    0.953289587764    0.193609659361    T   T   T
    0.403352033246    0.202054205778    0.324554749378    T   T   T
    0.764638641739    0.199759989919    0.328414612863    T   T   T
    0.920513609338    0.950829677900    0.331771830247    T   T   T
    0.253040301428    0.449316906106    0.332508397390    T   T   T
    0.921694790844    0.446669180528    0.332936514580    T   T   T
    0.587605207097    0.950004055569    0.333067512630    T   T   T
    0.587927598545    0.449547356922    0.333574533842    T   T   T
    0.088004614694    0.700061106676    0.334430442837    T   T   T
    0.420548841196    0.699415478086    0.334665704766    T   T   T
    0.252650786664    0.952668288382    0.335689976175    T   T   T
    0.085576469122    0.200129441730    0.336897281749    T   T   T
    0.743737072838    0.698983307734    0.337184319381    T   T   T
